Translating instance to solver...

Set parameter TimeLimit to value 28800
Gurobi Optimizer version 11.0.2 build v11.0.2rc0 (linux64 - "Ubuntu 22.04.4 LTS")

CPU model: Intel(R) Xeon(R) Gold 5120 CPU @ 2.20GHz, instruction set [SSE2|AVX|AVX2|AVX512]
Thread count: 28 physical cores, 56 logical processors, using up to 28 threads

Academic license 2463511 - for non-commercial use only - registered to lu___@cefet-rj.br
Optimize a model with 12725 rows, 7643 columns and 31653 nonzeros
Model fingerprint: 0x2efd1cdd
Variable types: 1 continuous, 7642 integer (7620 binary)
Coefficient statistics:
  Matrix range     [1e+00, 1e+05]
  Objective range  [3e-01, 8e-01]
  Bounds range     [1e+00, 2e+01]
  RHS range        [1e+00, 6e+01]
Presolve removed 10507 rows and 6685 columns
Presolve time: 0.17s
Presolved: 2218 rows, 958 columns, 7429 nonzeros
Variable types: 0 continuous, 958 integer (937 binary)

Root relaxation: objective 1.126068e+00, 433 iterations, 0.01 seconds (0.01 work units)

    Nodes    |    Current Node    |     Objective Bounds      |     Work
 Expl Unexpl |  Obj  Depth IntInf | Incumbent    BestBd   Gap | It/Node Time

     0     0    1.12607    0   65          -    1.12607      -     -    0s
H    0     0                       1.8176730    1.12607  38.0%     -    0s
H    0     0                       1.5117820    1.12607  25.5%     -    0s
     0     0    1.34412    0  119    1.51178    1.34412  11.1%     -    0s
     0     0    1.36767    0   96    1.51178    1.36767  9.53%     -    0s
     0     0    1.36767    0   94    1.51178    1.36767  9.53%     -    0s
     0     0    1.36767    0  358    1.51178    1.36767  9.53%     -    0s
     0     0    1.36767    0  204    1.51178    1.36767  9.53%     -    0s
     0     0    1.36767    0  200    1.51178    1.36767  9.53%     -    0s
     0     0    1.36767    0   47    1.51178    1.36767  9.53%     -    0s
     0     0    1.36767    0   66    1.51178    1.36767  9.53%     -    0s
     0     0    1.36767    0  121    1.51178    1.36767  9.53%     -    0s
     0     0    1.36767    0  133    1.51178    1.36767  9.53%     -    0s
     0     0    1.36767    0  105    1.51178    1.36767  9.53%     -    0s
     0     0    1.36767    0  114    1.51178    1.36767  9.53%     -    0s
     0     0    1.36767    0  136    1.51178    1.36767  9.53%     -    0s
     0     0    1.36767    0  150    1.51178    1.36767  9.53%     -    0s
     0     0    1.36767    0  127    1.51178    1.36767  9.53%     -    1s
     0     0    1.36767    0  125    1.51178    1.36767  9.53%     -    1s
     0     0    1.36767    0   19    1.51178    1.36767  9.53%     -    1s
     0     0    1.36767    0  130    1.51178    1.36767  9.53%     -    1s
     0     0    1.36767    0   92    1.51178    1.36767  9.53%     -    1s
     0     0    1.36767    0   86    1.51178    1.36767  9.53%     -    1s
     0     2    1.36767    0   86    1.51178    1.36767  9.53%     -    1s

Cutting planes:
  Learned: 27
  Gomory: 4
  Implied bound: 25
  Clique: 2
  MIR: 22
  Zero half: 7
  RLT: 33
  Relax-and-lift: 29
  BQP: 7

Explored 13 nodes (9979 simplex iterations) in 1.76 seconds (1.18 work units)
Thread count was 28 (of 56 available processors)

Solution count 2: 1.51178 1.81767 

Optimal solution found (tolerance 1.00e-04)
Best objective 1.511782000000e+00, best bound 1.511782000000e+00, gap 0.0000%

Solver Wallclock Time (for this epsilon): 1.7594399452209473 s
Python wallclock Time (for this epsilon): 2.675335168838501 s


Total Elapsed Time (since program call): 21.89516830444336 s

Results:

I = 1.511782 mA
C = 73.0 points
C ~= 29.200000000000003 km^2

Minimum Epsilon for this instance = 10
Maximum Epsilon for this instance = 100

Current Epsilon = 60


Preprocessing Time (for this epsilon): 0.003402233123779297 s


Updated solution vectors:
sol_I = [-0.611782,-1.061782,-1.061782,-1.061782,-1.061782,-1.511782]
sol_C = [14.0,48.0,48.0,49.0,50.0,73.0]
sol_eps = [10,20,30,40,50,60]
sol_gap = [0.0,0.0,0.0,0.0,0.0,0.0]
